projetosGusek/plantaCompacto.out
Problem:    plantaCompacto
Rows:       8
Columns:    8 (8 integer, 2 binary)
Non-zeros:  28
Status:     INTEGER OPTIMAL
Objective:  lucro = 37850 (MAXimum)

   No.   Row name        Activity     Lower bound   Upper bound
------ ------------    ------------- ------------- -------------
     1 lucro                   37850                             
     2 capacidade_plantas[1]
                                 120                         120 
     3 capacidade_plantas[2]
                                 150                         150 
     4 demanda_revendas[1]
                                  55            55               
     5 demanda_revendas[2]
                                 120            70               
     6 demanda_revendas[3]
                                  95            65               
     7 resticao_y[1]
                              -99879                          -0 
     8 resticao_y[2]
                              -99849                          -0 

   No. Column name       Activity     Lower bound   Upper bound
------ ------------    ------------- ------------- -------------
     1 PR[1,1]      *              0             0               
     2 PR[1,2]      *            120             0               
     3 PR[1,3]      *              0             0               
     4 PR[2,1]      *             55             0               
     5 PR[2,2]      *              0             0               
     6 PR[2,3]      *             95             0               
     7 Y[1]         *              1             0             1 
     8 Y[2]         *              1             0             1 

Integer feasibility conditions:

KKT.PE: max.abs.err = 0.00e+00 on row 0
        max.rel.err = 0.00e+00 on row 0
        High quality

KKT.PB: max.abs.err = 0.00e+00 on row 0
        max.rel.err = 0.00e+00 on row 0
        High quality

End of output
